db/data/536020215244811746626755327652412216015.z3.out
-------------------
2500.091642169
